VACCINE = Vaccine(1..4);
m = 24;
age = [SENIOR, ANCIENT, BABY, ANCIENT, AGED, AGED, CHILD, SENIOR, ANCIENT, BABY, SENIOR, YOUTH, CHILD, ADULT, SENIOR, AGED, YOUTH, SENIOR, ADULT, ADULT, BABY, CHILD, BABY, YOUTH];
gender = [MALE, MALE, FEMALE, OTHER, MALE, MALE, OTHER, MALE, OTHER, MALE, OTHER, OTHER, OTHER, FEMALE, FEMALE, MALE, OTHER, OTHER, FEMALE, FEMALE, FEMALE, FEMALE, FEMALE, FEMALE];
health = [COMPROMISED, COMPROMISED, GOOD, POOR, POOR, GOOD, GOOD, COMPROMISED, GOOD, POOR, GOOD, COMPROMISED, GOOD, COMPROMISED, GOOD, POOR, POOR, COMPROMISED, COMPROMISED, POOR, GOOD, GOOD, GOOD, GOOD];
exposure = [HIGH, HIGH, EXTREME, LOW, HIGH, LOW, HIGH, LOW, HIGH, AVERAGE, HIGH, LOW, AVERAGE, LOW, EXTREME, AVERAGE, LOW, EXTREME, HIGH, AVERAGE, EXTREME, LOW, AVERAGE, LOW];
size = [4, 9, 5, 4, 4, 6, 8, 8, 6, 9, 7, 9, 4, 8, 7, 4, 7, 8, 9, 6, 8, 6, 5, 6];
minsize = 4;
age_group_min = [0, 0, 0, 1, 0, 0, 0];
age_group_max = [11, 18, 19, 20, 22, 18, 22];
max_people_diff = 80;
max_share_vaccines = 3;
health_information = {3, 16, 23};
exposure_information = {7, 16, 21, 24};